computational_data/real_data/logs/penguins_trial_000_lex.log
Welcome to the CBC MILP Solver 
Version: 2.10.12 
Build Date: Aug 20 2024 

command line - /opt/homebrew/bin/cbc computational_data/real_data/lp/penguins_trial_000_lex.lp seconds 10.0 solve solu computational_data/real_data/solutions/penguins_trial_000_lex.sol (default strategy 1)
 CoinLpIO::readLp(): Maximization problem reformulated as minimization
Coin0009I Switching back to maximization to get correct duals etc
seconds was changed from 1e+100 to 10
Continuous objective value is 6.72239 - 0.00 seconds
Cgl0003I 0 fixed, 0 tightened bounds, 49 strengthened rows, 0 substitutions
Cgl0003I 0 fixed, 0 tightened bounds, 51 strengthened rows, 0 substitutions
Cgl0003I 0 fixed, 0 tightened bounds, 46 strengthened rows, 0 substitutions
Cgl0003I 0 fixed, 0 tightened bounds, 36 strengthened rows, 0 substitutions
Cgl0003I 0 fixed, 0 tightened bounds, 23 strengthened rows, 0 substitutions
Cgl0003I 0 fixed, 0 tightened bounds, 14 strengthened rows, 0 substitutions
Cgl0003I 0 fixed, 0 tightened bounds, 6 strengthened rows, 0 substitutions
Cgl0003I 0 fixed, 0 tightened bounds, 4 strengthened rows, 0 substitutions
Cgl0003I 0 fixed, 0 tightened bounds, 4 strengthened rows, 0 substitutions
Cgl0004I processed model has 57 rows, 25 columns (25 integer (24 of which binary)) and 366 elements
Cbc0038I Initial state - 11 integers unsatisfied sum - 2.8
Cbc0038I Pass   1: suminf.    0.00000 (0) obj. 6.62687 iterations 11
Cbc0038I Solution found of 6.62687
Cbc0038I Cleaned solution of 6.62687
Cbc0038I Before mini branch and bound, 14 integers at bound fixed and 0 continuous
Cbc0038I Full problem 57 rows 25 columns, reduced to 15 rows 9 columns
Cbc0038I Mini branch and bound improved solution from 6.62687 to 6.65672 (0.01 seconds)
Cbc0038I Round again with cutoff of 6.65971
Cbc0038I Pass   2: suminf.    0.40121 (8) obj. 6.65971 iterations 11
Cbc0038I Pass   3: suminf.    0.40121 (8) obj. 6.65971 iterations 0
Cbc0038I Pass   4: suminf.    3.17143 (17) obj. 6.67761 iterations 12
Cbc0038I Pass   5: suminf.    0.40121 (8) obj. 6.65971 iterations 15
Cbc0038I Pass   6: suminf.    0.40121 (8) obj. 6.65971 iterations 0
Cbc0038I Pass   7: suminf.    0.40121 (8) obj. 6.65971 iterations 7
Cbc0038I Pass   8: suminf.    0.40121 (8) obj. 6.65971 iterations 3
Cbc0038I Pass   9: suminf.    3.17143 (17) obj. 6.67761 iterations 12
Cbc0038I Pass  10: suminf.    0.40121 (8) obj. 6.65971 iterations 16
Cbc0038I Pass  11: suminf.    0.40121 (8) obj. 6.65971 iterations 1
Cbc0038I Pass  12: suminf.    0.48145 (10) obj. 6.65971 iterations 4
Cbc0038I Pass  13: suminf.    0.40121 (8) obj. 6.65971 iterations 3
Cbc0038I Pass  14: suminf.    0.40121 (8) obj. 6.65971 iterations 0
Cbc0038I Pass  15: suminf.    0.40121 (8) obj. 6.65971 iterations 0
Cbc0038I Pass  16: suminf.    3.17143 (17) obj. 6.67761 iterations 15
Cbc0038I Pass  17: suminf.    0.40121 (8) obj. 6.65971 iterations 13
Cbc0038I Pass  18: suminf.    0.40121 (8) obj. 6.65971 iterations 3
Cbc0038I Pass  19: suminf.    0.40121 (8) obj. 6.65971 iterations 2
Cbc0038I Pass  20: suminf.    0.40121 (8) obj. 6.65971 iterations 4
Cbc0038I Pass  21: suminf.    0.40121 (8) obj. 6.65971 iterations 2
Cbc0038I Pass  22: suminf.    3.17143 (17) obj. 6.67761 iterations 15
Cbc0038I Pass  23: suminf.    0.40121 (8) obj. 6.65971 iterations 13
Cbc0038I Pass  24: suminf.    0.40121 (8) obj. 6.65971 iterations 2
Cbc0038I Pass  25: suminf.    2.80000 (11) obj. 6.68657 iterations 9
Cbc0038I Pass  26: suminf.    0.40121 (8) obj. 6.65971 iterations 9
Cbc0038I Pass  27: suminf.    0.40121 (8) obj. 6.65971 iterations 6
Cbc0038I Pass  28: suminf.    0.40121 (8) obj. 6.65971 iterations 2
Cbc0038I Pass  29: suminf.    3.17143 (17) obj. 6.67761 iterations 14
Cbc0038I Pass  30: suminf.    0.40121 (8) obj. 6.65971 iterations 12
Cbc0038I Pass  31: suminf.    0.40121 (8) obj. 6.65971 iterations 3
Cbc0038I No solution found this major pass
Cbc0038I Before mini branch and bound, 1 integers at bound fixed and 0 continuous
Cbc0038I Full problem 57 rows 25 columns, reduced to 52 rows 24 columns
Cbc0038I Mini branch and bound did not improve solution (0.01 seconds)
Cbc0038I After 0.01 seconds - Feasibility pump exiting with objective of 6.65672 - took 0.00 seconds
Cbc0012I Integer solution of 6.656717 found by feasibility pump after 0 iterations and 0 nodes (0.01 seconds)
Cbc0038I Full problem 57 rows 25 columns, reduced to 15 rows 9 columns
Cbc0031I 2 added rows had average density of 12
Cbc0013I At root node, 7 cuts changed objective from 6.6865678 to 6.656717 in 1 passes
Cbc0014I Cut generator 0 (Probing) - 0 row cuts average 0.0 elements, 0 column cuts (0 active)  in 0.000 seconds - new frequency is -100
Cbc0014I Cut generator 1 (Gomory) - 3 row cuts average 8.0 elements, 0 column cuts (0 active)  in 0.000 seconds - new frequency is 1
Cbc0014I Cut generator 2 (Knapsack) - 0 row cuts average 0.0 elements, 0 column cuts (0 active)  in 0.000 seconds - new frequency is -100
Cbc0014I Cut generator 3 (Clique) - 0 row cuts average 0.0 elements, 0 column cuts (0 active)  in 0.000 seconds - new frequency is -100
Cbc0014I Cut generator 4 (MixedIntegerRounding2) - 0 row cuts average 0.0 elements, 0 column cuts (0 active)  in 0.000 seconds - new frequency is -100
Cbc0014I Cut generator 5 (FlowCover) - 0 row cuts average 0.0 elements, 0 column cuts (0 active)  in 0.000 seconds - new frequency is -100
Cbc0014I Cut generator 6 (TwoMirCuts) - 4 row cuts average 14.0 elements, 0 column cuts (0 active)  in 0.000 seconds - new frequency is -100
Cbc0001I Search completed - best objective 6.656717, took 0 iterations and 0 nodes (0.01 seconds)
Cbc0035I Maximum depth 0, 0 variables fixed on reduced cost
Cuts at root node changed objective from 6.68657 to 6.65672
Probing was tried 1 times and created 0 cuts of which 0 were active after adding rounds of cuts (0.000 seconds)
Gomory was tried 1 times and created 3 cuts of which 0 were active after adding rounds of cuts (0.000 seconds)
Knapsack was tried 1 times and created 0 cuts of which 0 were active after adding rounds of cuts (0.000 seconds)
Clique was tried 1 times and created 0 cuts of which 0 were active after adding rounds of cuts (0.000 seconds)
MixedIntegerRounding2 was tried 1 times and created 0 cuts of which 0 were active after adding rounds of cuts (0.000 seconds)
FlowCover was tried 1 times and created 0 cuts of which 0 were active after adding rounds of cuts (0.000 seconds)
TwoMirCuts was tried 1 times and created 4 cuts of which 0 were active after adding rounds of cuts (0.000 seconds)
ZeroHalf was tried 1 times and created 0 cuts of which 0 were active after adding rounds of cuts (0.000 seconds)

Result - Optimal solution found

Objective value:                6.65671700
Enumerated nodes:               0
Total iterations:               0
Time (CPU seconds):             0.01
Time (Wallclock seconds):       0.01

Total time (CPU seconds):       0.01   (Wallclock seconds):       0.01

